
Gurobi 12.0.2 (win64) logging started Thu Jun  5 15:47:32 2025

Set parameter LogFile to value "C:\Ioana\_uni\honours\slp\algorithm\Main_files\results\others\neuro_new\Task_001_Sample001_irr_gurobi.log"
Gurobi Optimizer version 12.0.2 build v12.0.2rc0 (win64 - Windows 11.0 (26100.2))

CPU model: Intel(R) Core(TM) Ultra 5 125H, instruction set [SSE2|AVX|AVX2]
Thread count: 14 physical cores, 18 logical processors, using up to 18 threads

Non-default parameters:
TimeLimit  2200

Optimize a model with 47226 rows, 34498 columns and 146685 nonzeros
Model fingerprint: 0x605ba0b8
Variable types: 17253 continuous, 17245 integer (17245 binary)
Coefficient statistics:
  Matrix range     [1e-04, 8e+04]
  Objective range  [1e-04, 3e+00]
  Bounds range     [1e+00, 1e+03]
  RHS range        [1e+00, 1e+00]
Presolve removed 30823 rows and 21540 columns
Presolve time: 0.56s
Presolved: 16403 rows, 12958 columns, 54588 nonzeros
Variable types: 6415 continuous, 6543 integer (6543 binary)

Root relaxation: objective 4.841595e-02, 2283 iterations, 0.29 seconds (0.28 work units)

    Nodes    |    Current Node    |     Objective Bounds      |     Work
 Expl Unexpl |  Obj  Depth IntInf | Incumbent    BestBd   Gap | It/Node Time

     0     0    0.04842    0   49          -    0.04842      -     -    0s
H    0     0                       5.0049348    0.04842  99.0%     -    1s
H    0     0                       4.7850935    0.04842  99.0%     -    1s
H    0     0                       4.7782761    0.04842  99.0%     -    1s
     0     0    0.88595    0   60    4.77828    0.88595  81.5%     -    1s
H    0     0                       4.1065670    0.90327  78.0%     -    1s
     0     0    1.73295    0   57    4.10657    1.73295  57.8%     -    1s
     0     0    1.73651    0   59    4.10657    1.73651  57.7%     -    1s
     0     0    1.76015    0   82    4.10657    1.76015  57.1%     -    2s
H    0     0                       4.0524587    1.76015  56.6%     -    2s
H    0     0                       4.0268114    1.76015  56.3%     -    2s
H    0     0                       4.0212154    1.76015  56.2%     -    2s
     0     0    2.12904    0   87    4.02122    2.12904  47.1%     -    2s
     0     0    2.12904    0   82    4.02122    2.12904  47.1%     -    3s
     0     0    2.12904    0   83    4.02122    2.12904  47.1%     -    3s
     0     0    2.18948    0   94    4.02122    2.18948  45.6%     -    3s
     0     0    2.19262    0   94    4.02122    2.19262  45.5%     -    3s
     0     2    2.19262    0   94    4.02122    2.19262  45.5%     -    5s
   185    52    3.53983   14   78    4.02122    2.41239  40.0%   285   10s
  1098   141     cutoff   55         4.02122    3.60732  10.3%   100   15s
  2968    54    4.00955   51    8    4.02122    3.97733  1.09%  42.9   20s

Cutting planes:
  Gomory: 1
  Lift-and-project: 2
  Cover: 6
  Implied bound: 5
  MIR: 29
  Flow cover: 55
  Flow path: 7
  Inf proof: 10
  Network: 23

Explored 3098 nodes (133911 simplex iterations) in 20.74 seconds (14.60 work units)
Thread count was 18 (of 18 available processors)

Solution count 7: 4.02122 4.02681 4.05246 ... 5.00493

Optimal solution found (tolerance 1.00e-04)
Best objective 4.021215409432e+00, best bound 4.021215409432e+00, gap 0.0000%
